data;

param n:=21;
param p:=3;
param r:=[1] 0 [2] 0 [3] 1 [4] 3 [5] 9 [6] 15 [7] 7 [8] 15 [9] 19 [10] 12 [11] 9 [12] 19 [13] 5 [14] 1 [15] 11 [16] 25 [17] 9 [18] 10 [19] 7 [20] 32 [21] 33 ;
param w:=[1] 34 [2] 16 [3] 37 [4] 25 [5] 79 [6] 55 [7] 94 [8] 22 [9] 84 [10] 53 [11] 75 [12] 37 [13] 85 [14] 25 [15] 51 [16] 75 [17] 46 [18] 2 [19] 30 [20] 57 [21] 67 ;

end;
